
  32    4
  10   10   10   10

   0   0   0   0   0  11 2 3 4 5 6 7 12 28 29 30 31 
  10   1   1   1   0   7 27 19 18 17 16 13 8 
   2   0   8   2   1   7 24 23 21 20 15 14 10 
   1   4   2   4   0   7 26 25 22 18 15 13 11 
   5   0   5   6   2   5 24 23 22 16 14 
   5   0   2   2   4   4 21 17 15 9 
   1   2   3   3   0   3 18 17 13 
   5   4   4   3   0   2 20 14 
   9   2   0   2   2   1 13 
   1   1   5   4   0   1 13 
   7   6   0   5   4   1 19 
   9   0   6   3   4   1 16 
   8   2   6   0   2   1 32
   4   0   5   4   4   1 32
   2   7   0   3   4   1 32
   1   5   3   4   0   1 32
  10   7   2   1   0   1 32
   3   4   6   6   0   1 32
   8   4   3   0   4   1 32
   3   7   5   5   0   1 32
   1   3   5   0   2   1 32
   6   3   5   4   0   1 32
   1   6   0   7   3   1 32
   4   3   0   3   3   1 32
   4   4   3   0   6   1 32
  10   0   1   5   8   1 32
  10   5   0   4   6   1 32
   5   0   2   4   4   1 32
  10   0   4   5   7   1 32
   1   2   0  10   5   1 32
   4   6   6   0   5   1 32
   0   0   0   0   0   0 
